data/CVRPLIB/Vrp-Set-XML100/instances/XML100_1111_03.vrp
NAME : XML100_1111_03
COMMENT : Generated by Queiroga, Sadykov, Uchoa, and Vidal (2021)
TYPE : CVRP
DIMENSION : 101
EDGE_WEIGHT_TYPE : EUC_2D
CAPACITY : 4
NODE_COORD_SECTION
1    370  604 
2    42   868 
3    351  585 
4    337  650 
5    294  769 
6    676  964 
7    505  999 
8    881  981 
9    635  868 
10   644  596 
11   183  278 
12   129  292 
13   4    944 
14   415  580 
15   996  470 
16   671  163 
17   873  44  
18   861  965 
19   259  234 
20   837  476 
21   310  222 
22   289  341 
23   364  312 
24   611  156 
25   773  26  
26   136  217 
27   746  837 
28   346  417 
29   885  451 
30   966  436 
31   880  987 
32   559  620 
33   707  738 
34   314  959 
35   928  222 
36   589  287 
37   905  569 
38   431  721 
39   237  301 
40   395  801 
41   322  334 
42   600  31  
43   225  121 
44   569  735 
45   410  150 
46   698  101 
47   978  521 
48   309  77  
49   854  990 
50   857  991 
51   615  44  
52   285  63  
53   187  435 
54   13   838 
55   639  150 
56   866  473 
57   627  301 
58   251  456 
59   369  596 
60   834  438 
61   460  520 
62   856  169 
63   627  466 
64   714  211 
65   804  238 
66   879  97  
67   584  905 
68   682  929 
69   714  922 
70   434  951 
71   679  352 
72   807  839 
73   507  386 
74   523  741 
75   300  377 
76   197  408 
77   301  31  
78   227  68  
79   719  879 
80   794  271 
81   672  64  
82   897  378 
83   941  507 
84   719  331 
85   626  65  
86   811  45  
87   632  60  
88   663  519 
89   88   801 
90   22   60  
91   921  156 
92   808  642 
93   445  936 
94   593  320 
95   758  591 
96   807  345 
97   420  409 
98   20   616 
99   832  574 
100  530  190 
101  548  11  
DEMAND_SECTION
1    0   
2    1   
3    1   
4    1   
5    1   
6    1   
7    1   
8    1   
9    1   
10   1   
11   1   
12   1   
13   1   
14   1   
15   1   
16   1   
17   1   
18   1   
19   1   
20   1   
21   1   
22   1   
23   1   
24   1   
25   1   
26   1   
27   1   
28   1   
29   1   
30   1   
31   1   
32   1   
33   1   
34   1   
35   1   
36   1   
37   1   
38   1   
39   1   
40   1   
41   1   
42   1   
43   1   
44   1   
45   1   
46   1   
47   1   
48   1   
49   1   
50   1   
51   1   
52   1   
53   1   
54   1   
55   1   
56   1   
57   1   
58   1   
59   1   
60   1   
61   1   
62   1   
63   1   
64   1   
65   1   
66   1   
67   1   
68   1   
69   1   
70   1   
71   1   
72   1   
73   1   
74   1   
75   1   
76   1   
77   1   
78   1   
79   1   
80   1   
81   1   
82   1   
83   1   
84   1   
85   1   
86   1   
87   1   
88   1   
89   1   
90   1   
91   1   
92   1   
93   1   
94   1   
95   1   
96   1   
97   1   
98   1   
99   1   
100  1   
101  1   
DEPOT_SECTION
1
-1
EOF
