data/CVRPLIB/Vrp-Set-XML100/solutions/XML100_1111_03.sol
Route #1: 94 98 36 91
Route #2: 82 46 14 29
Route #3: 62 87 9 31
Route #4: 11 10 38 21
Route #5: 24 85 16 65
Route #6: 81 34 90 61
Route #7: 42 77 89 25
Route #8: 93 35 56 70
Route #9: 7 30 49 48
Route #10: 100 41 50 99
Route #11: 47 51 76 44
Route #12: 45 80 86 84
Route #13: 3 4 39 37
Route #14: 33 69 6 92
Route #15: 78 68 67 5
Route #16: 43 8 66 73
Route #17: 63 15 54 23
Route #18: 1 12 53 88
Route #19: 59 28 55 19
Route #20: 97 52 75 57
Route #21: 26 17 71 32
Route #22: 74 27 96 72
Route #23: 40 18 20 22
Route #24: 58 2 60 13
Route #25: 83 64 79 95
Cost 26322
